cases/matpower/case5_tnep.m
ipopt
DCP
[info | PowerModels]: extending matpower format with data: ne_branch 3x15
[warn | PowerModels]: the dc line model is not meant to be used bi-directionally when loss1 > 0, be careful interpreting the results as the dc line losses can now be negative. change loss1 to 0 to avoid this warning
[warn | PowerModels]: the to bus voltage setpoint on dc line 1 does not match the value at bus 5
[info | PowerModels]: removing 1 cost terms from generator 4: [4000.0, 0.0]
[info | PowerModels]: removing 1 cost terms from generator 1: [1400.0, 0.0]
[info | PowerModels]: removing 1 cost terms from generator 5: [1000.0, 0.0]
[info | PowerModels]: removing 1 cost terms from generator 2: [1500.0, 0.0]
[info | PowerModels]: removing 1 cost terms from generator 3: [3000.0, 0.0]
[info | PowerModels]: removing 1 cost terms from dcline 1: [4000.0, 0.0]

******************************************************************************
This program contains Ipopt, a library for large-scale nonlinear optimization.
 Ipopt is released as open source code under the Eclipse Public License (EPL).
         For more information visit http://projects.coin-or.org/Ipopt
******************************************************************************

This is Ipopt version 3.13.2, running with linear solver mumps.
NOTE: Other linear solvers might be more efficient (see Ipopt documentation).

Number of nonzeros in equality constraint Jacobian...:       30
Number of nonzeros in inequality constraint Jacobian.:       16
Number of nonzeros in Lagrangian Hessian.............:        0

Total number of variables............................:       16
                     variables with only lower bounds:        0
                variables with lower and upper bounds:       11
                     variables with only upper bounds:        0
Total number of equality constraints.................:       11
Total number of inequality constraints...............:        8
        inequality constraints with only lower bounds:        4
   inequality constraints with lower and upper bounds:        0
        inequality constraints with only upper bounds:        4

iter    objective    inf_pr   inf_du lg(mu)  ||d||  lg(rg) alpha_du alpha_pr  ls
   0  5.3659985e+02 3.99e+00 4.51e+01  -1.0 0.00e+00    -  0.00e+00 0.00e+00   0
   1  9.8869540e+02 3.90e+00 4.51e+01  -1.0 5.73e+00    -  4.01e-03 2.28e-02h  1
   2  8.2410474e+02 3.87e+00 4.49e+01  -1.0 2.48e+01    -  4.56e-03 6.67e-03f  1
   3  8.5687056e+02 3.84e+00 3.96e+01  -1.0 1.54e+01    -  1.79e-01 9.23e-03h  1
   4  2.8154839e+03 3.05e+00 3.50e+01  -1.0 9.70e+00    -  4.25e-02 2.05e-01h  1
   5  2.8387180e+03 3.04e+00 3.21e+01  -1.0 7.20e+00    -  9.20e-03 2.75e-03h  1
   6  8.7759709e+03 2.26e+00 5.27e+01  -1.0 7.66e+00    -  6.81e-04 2.58e-01h  1
   7  1.6585581e+04 1.23e+00 3.07e+01  -1.0 5.74e+00    -  6.14e-01 4.57e-01h  1
   8  1.8344731e+04 9.92e-01 1.08e+01  -1.0 3.09e+00    -  9.60e-01 1.90e-01h  1
   9  1.8363652e+04 9.90e-01 1.70e+01  -1.0 2.27e+00    -  9.14e-03 2.59e-03h  1
iter    objective    inf_pr   inf_du lg(mu)  ||d||  lg(rg) alpha_du alpha_pr  ls
  10  2.1255573e+04 7.02e-01 6.42e+01  -1.0 2.50e+00    -  7.99e-04 2.91e-01h  1
  11  2.6267795e+04 2.05e-01 1.95e+01  -1.0 1.78e+00    -  9.29e-01 7.08e-01h  1
  12  2.6318050e+04 2.00e-01 9.35e+00  -1.0 5.17e-01    -  1.00e+00 2.43e-02h  1
  13  2.6322462e+04 1.99e-01 4.83e+03  -1.0 3.89e-01    -  1.00e+00 3.47e-03h  1
  14  2.6325638e+04 1.98e-01 6.91e+05  -1.0 2.56e-01    -  1.00e+00 6.96e-03h  1
  15  2.6325589e+04 1.98e-01 4.75e+09  -1.0 3.69e-01    -  1.00e+00 1.45e-04h  1
  16  2.6318870e+04 1.67e-01 4.65e+07  -1.0 3.11e-02    -  9.90e-01 1.00e+00h  1
  17r 2.6318870e+04 1.67e-01 1.00e+03  -0.8 0.00e+00    -  0.00e+00 4.13e-07R  3
  18r 2.6330918e+04 1.78e-01 3.60e+00  -0.8 2.93e-02    -  9.96e-01 1.00e+00f  1
  19r 2.6422687e+04 1.77e-01 8.33e-01  -1.5 1.93e-01    -  1.00e+00 9.96e-01f  1
iter    objective    inf_pr   inf_du lg(mu)  ||d||  lg(rg) alpha_du alpha_pr  ls
  20r 2.6408644e+04 1.77e-01 2.01e-02  -2.2 2.85e-02    -  1.00e+00 1.00e+00f  1
  21r 2.6382932e+04 1.75e-01 1.45e-02  -5.0 5.47e-02    -  9.54e-01 1.00e+00f  1
  22r 2.6380691e+04 1.75e-01 1.04e-10  -5.0 4.82e-03    -  1.00e+00 1.00e+00f  1
  23r 2.6348299e+04 1.69e-01 5.01e-02  -7.5 6.98e-02    -  9.35e-01 1.00e+00f  1
  24r 2.6346512e+04 1.68e-01 4.55e-13  -7.5 3.86e-03    -  1.00e+00 1.00e+00h  1
  25r 2.6332363e+04 1.67e-01 7.85e+00  -9.0 3.34e-02    -  9.94e-01 9.14e-01f  1

Number of Iterations....: 25

                                   (scaled)                 (unscaled)
Objective...............:   6.5823536870240457e+02    2.6329414748096180e+04
Dual infeasibility......:   1.0000000000001194e+02    4.0000000000004775e+03
Constraint violation....:   1.6671480616173051e-01    1.6671480616173051e-01
Complementarity.........:   3.5484802898794588e-08    1.4193921159517834e-06
Overall NLP error.......:   6.9958061967393235e+01    4.0000000000004775e+03


Number of objective function evaluations             = 30
Number of objective gradient evaluations             = 19
Number of equality constraint evaluations            = 30
Number of inequality constraint evaluations          = 30
Number of equality constraint Jacobian evaluations   = 1
Number of inequality constraint Jacobian evaluations = 1
Number of Lagrangian Hessian evaluations             = 2
Total CPU secs in IPOPT (w/o function evaluations)   =      0.267
Total CPU secs in NLP function evaluations           =      0.212

EXIT: Converged to a point of local infeasibility. Problem may be infeasible.
Time to Solution........:1.1815071105957031
